c "156730.clq"
p edge 100 1344
e 1 17
e 1 18
e 1 19
e 1 21
e 1 22
e 1 24
e 1 26
e 1 29
e 1 32
e 1 34
e 1 37
e 1 39
e 1 41
e 1 43
e 1 51
e 1 54
e 1 57
e 1 66
e 1 68
e 1 71
e 1 72
e 1 77
e 1 89
e 1 90
e 1 95
e 2 17
e 2 18
e 2 19
e 2 20
e 2 21
e 2 22
e 2 23
e 2 25
e 2 26
e 2 27
e 2 28
e 2 29
e 2 30
e 2 31
e 2 33
e 2 34
e 2 35
e 2 36
e 2 37
e 2 38
e 2 41
e 2 42
e 2 48
e 2 50
e 2 57
e 2 58
e 2 73
e 2 74
e 2 76
e 2 90
e 2 94
e 2 96
e 2 99
e 3 17
e 3 19
e 3 20
e 3 21
e 3 23
e 3 27
e 3 36
e 3 37
e 3 45
e 3 47
e 3 50
e 3 54
e 3 56
e 3 66
e 3 68
e 3 73
e 3 74
e 3 76
e 3 80
e 3 85
e 3 91
e 3 94
e 3 98
e 4 17
e 4 18
e 4 19
e 4 20
e 4 23
e 4 25
e 4 27
e 4 30
e 4 31
e 4 33
e 4 37
e 4 51
e 4 60
e 4 76
e 4 77
e 4 80
e 4 94
e 4 95
e 4 98
e 5 17
e 5 18
e 5 19
e 5 20
e 5 22
e 5 24
e 5 25
e 5 28
e 5 31
e 5 34
e 5 40
e 5 41
e 5 42
e 5 50
e 5 56
e 5 58
e 5 80
e 5 82
e 5 83
e 6 17
e 6 18
e 6 20
e 6 21
e 6 22
e 6 23
e 6 24
e 6 25
e 6 26
e 6 27
e 6 28
e 6 32
e 6 34
e 6 36
e 6 44
e 6 51
e 6 52
e 6 54
e 6 57
e 6 60
e 6 61
e 6 64
e 6 74
e 6 76
e 6 89
e 6 90
e 6 93
e 6 97
e 7 17
e 7 18
e 7 19
e 7 20
e 7 23
e 7 24
e 7 26
e 7 35
e 7 39
e 7 41
e 7 43
e 7 46
e 7 47
e 7 49
e 7 50
e 7 55
e 7 73
e 7 76
e 7 85
e 7 87
e 7 92
e 7 99
e 8 17
e 8 18
e 8 19
e 8 21
e 8 24
e 8 26
e 8 29
e 8 30
e 8 31
e 8 33
e 8 34
e 8 37
e 8 51
e 8 57
e 8 67
e 8 76
e 8 93
e 8 99
e 9 17
e 9 18
e 9 19
e 9 21
e 9 28
e 9 33
e 9 40
e 9 59
e 9 62
e 9 65
e 9 68
e 9 71
e 9 76
e 9 82
e 9 96
e 10 17
e 10 18
e 10 19
e 10 20
e 10 21
e 10 22
e 10 23
e 10 24
e 10 25
e 10 26
e 10 27
e 10 29
e 10 32
e 10 33
e 10 35
e 10 38
e 10 39
e 10 40
e 10 42
e 10 44
e 10 45
e 10 48
e 10 49
e 10 50
e 10 53
e 10 59
e 10 60
e 10 65
e 10 71
e 10 78
e 10 86
e 10 87
e 10 89
e 10 94
e 11 17
e 11 18
e 11 19
e 11 20
e 11 22
e 11 23
e 11 25
e 11 31
e 11 32
e 11 35
e 11 41
e 11 49
e 11 50
e 11 52
e 11 62
e 11 63
e 11 67
e 11 77
e 11 83
e 11 86
e 12 17
e 12 18
e 12 19
e 12 20
e 12 21
e 12 22
e 12 23
e 12 24
e 12 25
e 12 26
e 12 27
e 12 28
e 12 31
e 12 33
e 12 42
e 12 43
e 12 44
e 12 49
e 12 56
e 12 58
e 12 59
e 12 62
e 12 64
e 12 66
e 12 67
e 12 68
e 12 69
e 12 79
e 12 82
e 12 85
e 12 97
e 12 99
e 12 100
e 13 17
e 13 18
e 13 20
e 13 21
e 13 22
e 13 23
e 13 24
e 13 25
e 13 26
e 13 27
e 13 29
e 13 33
e 13 36
e 13 40
e 13 42
e 13 43
e 13 46
e 13 54
e 13 55
e 13 66
e 13 69
e 13 76
e 13 77
e 13 84
e 13 85
e 13 89
e 13 94
e 13 97
e 14 17
e 14 18
e 14 19
e 14 20
e 14 21
e 14 22
e 14 24
e 14 25
e 14 27
e 14 28
e 14 29
e 14 30
e 14 37
e 14 47
e 14 53
e 14 59
e 14 60
e 14 69
e 14 70
e 14 77
e 14 78
e 14 80
e 14 99
e 15 17
e 15 18
e 15 19
e 15 20
e 15 21
e 15 22
e 15 23
e 15 27
e 15 28
e 15 29
e 15 36
e 15 37
e 15 38
e 15 40
e 15 44
e 15 51
e 15 57
e 15 68
e 15 83
e 15 84
e 15 95
e 16 17
e 16 18
e 16 19
e 16 20
e 16 21
e 16 22
e 16 25
e 16 28
e 16 30
e 16 32
e 16 34
e 16 40
e 16 43
e 16 47
e 16 49
e 16 50
e 16 53
e 16 55
e 16 56
e 16 58
e 16 63
e 16 69
e 16 70
e 16 71
e 16 72
e 16 73
e 16 78
e 16 90
e 16 91
e 16 93
e 16 100
e 17 18
e 17 19
e 17 20
e 17 21
e 17 22
e 17 23
e 17 24
e 17 25
e 17 26
e 17 27
e 17 28
e 17 29
e 17 30
e 17 31
e 17 33
e 17 34
e 17 35
e 17 37
e 17 38
e 17 39
e 17 40
e 17 44
e 17 45
e 17 47
e 17 48
e 17 50
e 17 51
e 17 52
e 17 54
e 17 55
e 17 56
e 17 57
e 17 59
e 17 61
e 17 63
e 17 64
e 17 67
e 17 69
e 17 73
e 17 75
e 17 77
e 17 78
e 17 79
e 17 86
e 17 87
e 17 88
e 17 91
e 17 94
e 17 96
e 17 100
e 18 19
e 18 20
e 18 21
e 18 22
e 18 23
e 18 24
e 18 26
e 18 27
e 18 29
e 18 30
e 18 31
e 18 33
e 18 34
e 18 36
e 18 38
e 18 39
e 18 42
e 18 44
e 18 45
e 18 47
e 18 49
e 18 54
e 18 56
e 18 65
e 18 72
e 18 75
e 18 76
e 18 77
e 18 78
e 18 85
e 18 86
e 18 100
e 19 20
e 19 21
e 19 22
e 19 23
e 19 24
e 19 26
e 19 28
e 19 31
e 19 32
e 19 33
e 19 34
e 19 36
e 19 39
e 19 41
e 19 42
e 19 43
e 19 44
e 19 45
e 19 46
e 19 50
e 19 51
e 19 53
e 19 54
e 19 55
e 19 56
e 19 65
e 19 70
e 19 73
e 19 79
e 19 81
e 19 82
e 19 83
e 19 88
e 19 89
e 19 93
e 19 94
e 19 95
e 19 98
e 20 21
e 20 22
e 20 23
e 20 24
e 20 25
e 20 26
e 20 27
e 20 28
e 20 29
e 20 30
e 20 32
e 20 33
e 20 35
e 20 36
e 20 38
e 20 39
e 20 40
e 20 41
e 20 45
e 20 46
e 20 47
e 20 52
e 20 54
e 20 55
e 20 56
e 20 57
e 20 59
e 20 61
e 20 62
e 20 63
e 20 64
e 20 66
e 20 67
e 20 69
e 20 70
e 20 71
e 20 74
e 20 75
e 20 77
e 20 79
e 20 82
e 20 84
e 20 85
e 20 86
e 20 90
e 20 95
e 20 96
e 20 97
e 20 100
e 21 22
e 21 23
e 21 24
e 21 25
e 21 26
e 21 27
e 21 28
e 21 29
e 21 30
e 21 31
e 21 32
e 21 35
e 21 36
e 21 37
e 21 38
e 21 39
e 21 41
e 21 42
e 21 44
e 21 45
e 21 46
e 21 48
e 21 49
e 21 50
e 21 51
e 21 52
e 21 53
e 21 54
e 21 56
e 21 59
e 21 63
e 21 67
e 21 68
e 21 71
e 21 78
e 21 80
e 21 84
e 21 85
e 21 86
e 21 90
e 21 92
e 21 93
e 21 99
e 22 23
e 22 24
e 22 25
e 22 26
e 22 28
e 22 29
e 22 30
e 22 31
e 22 32
e 22 33
e 22 35
e 22 37
e 22 43
e 22 44
e 22 48
e 22 51
e 22 52
e 22 53
e 22 57
e 22 59
e 22 60
e 22 62
e 22 65
e 22 66
e 22 70
e 22 71
e 22 72
e 22 75
e 22 78
e 22 83
e 22 84
e 22 88
e 22 90
e 22 91
e 22 94
e 22 97
e 22 99
e 23 24
e 23 25
e 23 26
e 23 27
e 23 28
e 23 29
e 23 30
e 23 31
e 23 33
e 23 34
e 23 35
e 23 37
e 23 38
e 23 39
e 23 42
e 23 43
e 23 44
e 23 45
e 23 46
e 23 48
e 23 49
e 23 50
e 23 51
e 23 53
e 23 55
e 23 57
e 23 58
e 23 59
e 23 60
e 23 64
e 23 65
e 23 66
e 23 67
e 23 68
e 23 71
e 23 73
e 23 82
e 23 84
e 23 85
e 23 89
e 23 90
e 23 98
e 24 25
e 24 28
e 24 29
e 24 30
e 24 31
e 24 32
e 24 35
e 24 36
e 24 37
e 24 39
e 24 40
e 24 42
e 24 47
e 24 52
e 24 55
e 24 56
e 24 60
e 24 61
e 24 63
e 24 72
e 24 75
e 24 90
e 24 96
e 24 98
e 25 26
e 25 27
e 25 29
e 25 30
e 25 31
e 25 32
e 25 35
e 25 36
e 25 38
e 25 39
e 25 40
e 25 41
e 25 45
e 25 46
e 25 48
e 25 51
e 25 53
e 25 54
e 25 57
e 25 58
e 25 66
e 25 73
e 25 74
e 25 76
e 25 82
e 25 87
e 25 89
e 25 94
e 25 99
e 26 27
e 26 30
e 26 32
e 26 33
e 26 34
e 26 35
e 26 37
e 26 39
e 26 40
e 26 43
e 26 44
e 26 45
e 26 49
e 26 50
e 26 58
e 26 59
e 26 64
e 26 65
e 26 70
e 26 71
e 26 72
e 26 80
e 26 81
e 26 85
e 26 91
e 26 95
e 26 98
e 27 28
e 27 29
e 27 30
e 27 32
e 27 33
e 27 35
e 27 36
e 27 38
e 27 40
e 27 41
e 27 42
e 27 43
e 27 46
e 27 47
e 27 49
e 27 54
e 27 56
e 27 57
e 27 58
e 27 60
e 27 62
e 27 64
e 27 65
e 27 70
e 27 75
e 27 82
e 27 83
e 27 88
e 27 94
e 27 95
e 27 96
e 28 31
e 28 32
e 28 34
e 28 36
e 28 38
e 28 39
e 28 41
e 28 43
e 28 47
e 28 49
e 28 50
e 28 61
e 28 62
e 28 63
e 28 69
e 28 72
e 28 74
e 28 80
e 28 84
e 28 85
e 28 88
e 28 94
e 28 96
e 29 30
e 29 32
e 29 33
e 29 34
e 29 39
e 29 41
e 29 42
e 29 43
e 29 44
e 29 48
e 29 52
e 29 53
e 29 55
e 29 61
e 29 62
e 29 71
e 29 72
e 29 79
e 29 87
e 29 88
e 29 90
e 29 100
e 30 31
e 30 34
e 30 38
e 30 39
e 30 42
e 30 45
e 30 49
e 30 52
e 30 58
e 30 61
e 30 64
e 30 65
e 30 66
e 30 67
e 30 68
e 30 69
e 30 70
e 30 71
e 30 73
e 30 75
e 30 76
e 30 78
e 30 79
e 30 81
e 30 83
e 30 84
e 30 86
e 30 87
e 30 88
e 30 90
e 30 93
e 30 96
e 30 97
e 30 100
e 31 32
e 31 34
e 31 35
e 31 36
e 31 37
e 31 40
e 31 42
e 31 45
e 31 46
e 31 47
e 31 50
e 31 51
e 31 59
e 31 62
e 31 64
e 31 68
e 31 70
e 31 71
e 31 72
e 31 74
e 31 78
e 31 80
e 31 82
e 31 85
e 31 87
e 31 95
e 32 34
e 32 35
e 32 37
e 32 38
e 32 40
e 32 43
e 32 45
e 32 53
e 32 54
e 32 62
e 32 63
e 32 65
e 32 70
e 32 73
e 32 74
e 32 76
e 32 83
e 32 85
e 32 88
e 32 97
e 33 35
e 33 36
e 33 37
e 33 40
e 33 41
e 33 48
e 33 52
e 33 57
e 33 58
e 33 59
e 33 68
e 33 69
e 33 73
e 33 74
e 33 75
e 33 76
e 33 77
e 33 81
e 34 36
e 34 38
e 34 40
e 34 41
e 34 44
e 34 47
e 34 48
e 34 52
e 34 55
e 34 58
e 34 61
e 34 64
e 34 70
e 34 75
e 34 80
e 34 83
e 34 86
e 34 90
e 34 92
e 34 99
e 35 38
e 35 39
e 35 44
e 35 47
e 35 58
e 35 59
e 35 61
e 35 62
e 35 71
e 35 73
e 35 74
e 35 81
e 35 82
e 35 87
e 35 89
e 35 91
e 35 99
e 36 38
e 36 41
e 36 43
e 36 46
e 36 48
e 36 49
e 36 52
e 36 53
e 36 56
e 36 61
e 36 62
e 36 63
e 36 66
e 36 67
e 36 68
e 36 75
e 36 79
e 36 91
e 37 43
e 37 46
e 37 58
e 37 59
e 37 61
e 37 65
e 37 77
e 37 78
e 37 81
e 37 84
e 37 86
e 37 95
e 37 100
e 38 46
e 38 55
e 38 56
e 38 60
e 38 65
e 38 68
e 38 69
e 38 81
e 38 85
e 38 86
e 38 89
e 38 96
e 38 97
e 39 46
e 39 47
e 39 53
e 39 55
e 39 58
e 39 61
e 39 63
e 39 71
e 39 80
e 39 84
e 39 92
e 39 93
e 39 98
e 40 41
e 40 42
e 40 43
e 40 44
e 40 48
e 40 51
e 40 54
e 40 55
e 40 56
e 40 58
e 40 61
e 40 66
e 40 75
e 40 84
e 40 87
e 40 96
e 40 98
e 41 42
e 41 45
e 41 48
e 41 55
e 41 59
e 41 60
e 41 63
e 41 70
e 41 73
e 41 77
e 41 81
e 41 82
e 41 88
e 41 89
e 41 90
e 41 99
e 42 45
e 42 49
e 42 52
e 42 55
e 42 64
e 42 67
e 42 77
e 42 80
e 42 81
e 42 84
e 42 86
e 42 89
e 42 91
e 42 97
e 43 44
e 43 45
e 43 46
e 43 49
e 43 51
e 43 52
e 43 62
e 43 75
e 43 77
e 43 78
e 43 81
e 43 87
e 43 91
e 43 97
e 44 46
e 44 48
e 44 50
e 44 54
e 44 63
e 44 64
e 44 74
e 44 79
e 44 83
e 44 87
e 44 92
e 44 94
e 44 98
e 44 100
e 45 46
e 45 47
e 45 48
e 45 49
e 45 50
e 45 52
e 45 57
e 45 64
e 45 67
e 45 83
e 45 90
e 45 100
e 46 47
e 46 53
e 46 57
e 46 60
e 46 61
e 46 67
e 46 70
e 46 75
e 46 80
e 46 83
e 46 85
e 46 88
e 46 92
e 46 100
e 47 48
e 47 53
e 47 74
e 47 80
e 47 82
e 47 87
e 47 94
e 48 53
e 48 57
e 48 59
e 48 61
e 48 62
e 48 64
e 48 67
e 48 87
e 49 51
e 49 52
e 49 54
e 49 55
e 49 60
e 49 61
e 49 63
e 49 69
e 49 72
e 49 74
e 49 81
e 49 83
e 49 98
e 50 51
e 50 54
e 50 72
e 50 77
e 50 79
e 50 81
e 50 86
e 51 56
e 51 60
e 51 66
e 51 69
e 51 71
e 51 86
e 51 91
e 51 94
e 51 96
e 52 53
e 52 58
e 52 60
e 52 63
e 52 67
e 52 76
e 52 92
e 52 97
e 53 66
e 53 72
e 53 73
e 53 79
e 54 63
e 54 64
e 54 72
e 54 73
e 54 77
e 54 79
e 54 90
e 55 56
e 55 57
e 55 60
e 55 64
e 55 66
e 55 70
e 55 79
e 55 84
e 55 88
e 55 89
e 55 93
e 55 98
e 56 68
e 56 69
e 56 81
e 56 84
e 56 97
e 57 60
e 57 62
e 57 65
e 57 66
e 57 68
e 57 69
e 57 70
e 57 71
e 57 74
e 57 80
e 57 82
e 57 83
e 57 95
e 57 99
e 58 68
e 58 69
e 58 85
e 59 72
e 59 76
e 60 62
e 60 65
e 60 75
e 60 86
e 60 88
e 60 91
e 61 63
e 61 67
e 61 68
e 61 73
e 61 95
e 61 96
e 62 66
e 62 69
e 62 80
e 62 88
e 63 65
e 63 79
e 63 83
e 63 95
e 63 97
e 64 65
e 64 70
e 64 74
e 64 95
e 65 75
e 65 89
e 65 93
e 65 97
e 66 67
e 66 75
e 66 80
e 66 85
e 66 92
e 66 98
e 67 78
e 68 72
e 68 77
e 68 87
e 69 86
e 69 88
e 69 90
e 69 93
e 70 74
e 70 78
e 70 89
e 70 91
e 70 92
e 70 93
e 71 72
e 71 76
e 71 98
e 72 78
e 72 79
e 72 92
e 72 93
e 72 97
e 72 100
e 73 83
e 73 84
e 73 88
e 73 99
e 73 100
e 74 79
e 74 81
e 74 91
e 74 92
e 74 93
e 75 82
e 75 86
e 75 89
e 75 91
e 76 78
e 76 79
e 76 82
e 77 78
e 77 95
e 77 98
e 78 81
e 78 92
e 78 94
e 79 84
e 79 87
e 79 95
e 80 81
e 80 91
e 80 94
e 81 82
e 81 87
e 81 88
e 81 89
e 82 91
e 82 98
e 82 99
e 84 93
e 84 100
e 85 92
e 85 99
e 86 92
e 87 95
e 87 96
e 88 92
e 89 93
e 89 96
e 90 93
e 90 99
e 90 100
e 91 92
e 93 96
e 93 97
e 93 98
e 93 100
e 95 96
